p cnf 110 181
-22 -7 0
-22 14 0
22 7 -14 0
-23 -1 0
-23 -17 0
23 1 17 0
-24 22 0
-24 23 0
24 -22 -23 0
-25 6 0
-25 9 0
25 -6 -9 0
26 22 25 0
27 -24 -26 0
-28 8 0
-28 -21 0
28 -8 21 0
-29 -22 0
-29 -28 0
-30 -12 0
-30 14 0
30 12 -14 0
31 25 -30 0
-32 29 0
-32 -31 0
-33 4 0
-33 11 0
33 -4 -11 0
-34 6 0
-34 -8 0
34 -6 8 0
-35 33 0
-35 34 0
35 -33 -34 0
-36 -24 0
-36 35 0
-37 32 0
-37 36 0
-38 -27 0
-38 37 0
-39 -6 0
-39 -16 0
39 6 16 0
-40 1 0
-40 -11 0
40 -1 11 0
-41 -39 0
-41 -40 0
41 39 40 0
-42 -3 0
-42 18 0
42 3 -18 0
-43 5 0
-43 -12 0
43 -5 12 0
-44 -42 0
-44 43 0
44 42 -43 0
-45 41 0
-45 -44 0
46 11 -19 0
47 34 -46 0
48 7 -15 0
-49 -1 0
-49 19 0
49 1 -19 0
-50 -48 0
-50 49 0
51 -47 50 0
-52 -16 0
-52 17 0
52 16 -17 0
-53 -33 0
-53 -52 0
53 33 52 0
-54 -14 0
-54 25 0
54 14 -25 0
55 -53 -54 0
-56 -51 0
-56 -55 0
-57 45 0
-57 56 0
-58 -41 0
-58 -53 0
-59 -10 0
-59 -48 0
60 41 59 0
-61 58 0
-61 -60 0
-62 57 0
-62 61 0
-63 38 0
-63 62 0
64 -16 20 0
-65 49 0
-65 -64 0
-66 25 0
-66 -34 0
66 -25 34 0
67 65 -66 0
-68 25 0
-68 -52 0
68 -25 52 0
-69 -43 0
-69 49 0
-70 68 0
-70 69 0
71 -10 -13 0
72 28 -71 0
-73 -3 0
-73 6 0
73 3 -6 0
-74 -52 0
-74 73 0
74 52 -73 0
75 -72 74 0
-76 70 0
-76 -75 0
-77 -67 0
-77 76 0
78 53 -74 0
79 66 -72 0
-80 -78 0
-80 -79 0
81 35 -68 0
-82 -12 0
-82 16 0
82 12 -16 0
-83 -52 0
-83 -82 0
-84 44 0
-84 83 0
-85 -81 0
-85 84 0
-86 80 0
-86 85 0
-87 77 0
-87 86 0
-88 23 0
-88 49 0
88 -23 -49 0
-89 -35 0
-89 88 0
90 24 50 0
-91 89 0
-91 -90 0
-92 87 0
-92 91 0
93 59 83 0
-94 50 0
-94 68 0
-95 -93 0
-95 94 0
96 52 54 0
-97 -26 0
-97 -88 0
-98 -96 0
-98 97 0
99 -46 -73 0
-100 54 0
-100 -99 0
-101 -2 0
-101 -15 0
102 82 101 0
-103 9 0
-103 18 0
-104 30 0
-104 103 0
105 -102 104 0
-106 100 0
-106 -105 0
-107 98 0
-107 106 0
-108 95 0
-108 107 0
-109 92 0
-109 108 0
-110 63 0
-110 109 0
110 0
